c CNF file corresponding to a (partial) station packing problem.
p cnf 2208 213
1 2 3 4 5 6 7 8 9 10 11 12 13 14 0
-1 -2 0
-1 -3 0
-1 -4 0
-1 -5 0
-1 -6 0
-1 -7 0
-1 -8 0
-1 -9 0
-1 -10 0
-1 -11 0
-1 -12 0
-1 -13 0
-1 -14 0
-2 -3 0
-2 -4 0
-2 -5 0
-2 -6 0
-2 -7 0
-2 -8 0
-2 -9 0
-2 -10 0
-2 -11 0
-2 -12 0
-2 -13 0
-2 -14 0
-3 -4 0
-3 -5 0
-3 -6 0
-3 -7 0
-3 -8 0
-3 -9 0
-3 -10 0
-3 -11 0
-3 -12 0
-3 -13 0
-3 -14 0
-4 -5 0
-4 -6 0
-4 -7 0
-4 -8 0
-4 -9 0
-4 -10 0
-4 -11 0
-4 -12 0
-4 -13 0
-4 -14 0
-5 -6 0
-5 -7 0
-5 -8 0
-5 -9 0
-5 -10 0
-5 -11 0
-5 -12 0
-5 -13 0
-5 -14 0
-6 -7 0
-6 -8 0
-6 -9 0
-6 -10 0
-6 -11 0
-6 -12 0
-6 -13 0
-6 -14 0
-7 -8 0
-7 -9 0
-7 -10 0
-7 -11 0
-7 -12 0
-7 -13 0
-7 -14 0
-8 -9 0
-8 -10 0
-8 -11 0
-8 -12 0
-8 -13 0
-8 -14 0
-9 -10 0
-9 -11 0
-9 -12 0
-9 -13 0
-9 -14 0
-10 -11 0
-10 -12 0
-10 -13 0
-10 -14 0
-11 -12 0
-11 -13 0
-11 -14 0
-12 -13 0
-12 -14 0
-13 -14 0
2193 2194 2195 2196 2197 2198 2199 2200 2201 2202 2203 2204 2205 2206 2207 2208 0
-2193 -2194 0
-2193 -2195 0
-2193 -2196 0
-2193 -2197 0
-2193 -2198 0
-2193 -2199 0
-2193 -2200 0
-2193 -2201 0
-2193 -2202 0
-2193 -2203 0
-2193 -2204 0
-2193 -2205 0
-2193 -2206 0
-2193 -2207 0
-2193 -2208 0
-2194 -2195 0
-2194 -2196 0
-2194 -2197 0
-2194 -2198 0
-2194 -2199 0
-2194 -2200 0
-2194 -2201 0
-2194 -2202 0
-2194 -2203 0
-2194 -2204 0
-2194 -2205 0
-2194 -2206 0
-2194 -2207 0
-2194 -2208 0
-2195 -2196 0
-2195 -2197 0
-2195 -2198 0
-2195 -2199 0
-2195 -2200 0
-2195 -2201 0
-2195 -2202 0
-2195 -2203 0
-2195 -2204 0
-2195 -2205 0
-2195 -2206 0
-2195 -2207 0
-2195 -2208 0
-2196 -2197 0
-2196 -2198 0
-2196 -2199 0
-2196 -2200 0
-2196 -2201 0
-2196 -2202 0
-2196 -2203 0
-2196 -2204 0
-2196 -2205 0
-2196 -2206 0
-2196 -2207 0
-2196 -2208 0
-2197 -2198 0
-2197 -2199 0
-2197 -2200 0
-2197 -2201 0
-2197 -2202 0
-2197 -2203 0
-2197 -2204 0
-2197 -2205 0
-2197 -2206 0
-2197 -2207 0
-2197 -2208 0
-2198 -2199 0
-2198 -2200 0
-2198 -2201 0
-2198 -2202 0
-2198 -2203 0
-2198 -2204 0
-2198 -2205 0
-2198 -2206 0
-2198 -2207 0
-2198 -2208 0
-2199 -2200 0
-2199 -2201 0
-2199 -2202 0
-2199 -2203 0
-2199 -2204 0
-2199 -2205 0
-2199 -2206 0
-2199 -2207 0
-2199 -2208 0
-2200 -2201 0
-2200 -2202 0
-2200 -2203 0
-2200 -2204 0
-2200 -2205 0
-2200 -2206 0
-2200 -2207 0
-2200 -2208 0
-2201 -2202 0
-2201 -2203 0
-2201 -2204 0
-2201 -2205 0
-2201 -2206 0
-2201 -2207 0
-2201 -2208 0
-2202 -2203 0
-2202 -2204 0
-2202 -2205 0
-2202 -2206 0
-2202 -2207 0
-2202 -2208 0
-2203 -2204 0
-2203 -2205 0
-2203 -2206 0
-2203 -2207 0
-2203 -2208 0
-2204 -2205 0
-2204 -2206 0
-2204 -2207 0
-2204 -2208 0
-2205 -2206 0
-2205 -2207 0
-2205 -2208 0
-2206 -2207 0
-2206 -2208 0
-2207 -2208 0
